38
120
83	2
82	1
80	1
79	1
77	1
76	1
75	1
74	1
73	2
70	1
68	1
64	1
62	2
60	1
57	2
56	1
55	1
52	2
51	2
49	1
48	1
44	1
43	1
42	3
35	1
33	1
32	1
31	1
28	1
27	1
26	2
25	2
24	1
21	1
20	1
19	2
16	2
14	1
